p cnf 142 414
c t mc
-1 2 -3 0
1 -2 -3 0
-1 -2 3 0
1 2 3 0
5 -3 0
5 -4 0
3 4 -5 0
-7 1 -8 0
7 -1 -8 0
-7 -1 8 0
7 1 8 0
9 -6 0
9 8 0
6 -8 -9 0
12 10 0
12 -11 0
-10 11 -12 0
13 -9 0
13 -12 0
9 12 -13 0
16 14 0
16 15 0
-14 -15 -16 0
13 -16 -17 0
-13 16 -17 0
13 16 17 0
-13 -16 17 0
18 5 0
18 -17 0
-5 17 -18 0
-19 -20 -21 0
19 20 -21 0
-19 20 21 0
19 -20 21 0
-23 -21 0
-23 -22 0
21 22 23 0
-24 -25 -26 0
24 25 -26 0
-24 25 26 0
24 -25 26 0
-27 23 0
-27 -26 0
-23 26 27 0
-30 28 0
-30 -29 0
-28 29 30 0
31 -30 0
31 -30 0
30 -31 0
-27 -31 -32 0
27 31 -32 0
-27 31 32 0
27 -31 32 0
-33 -34 -35 0
33 34 -35 0
-33 34 35 0
33 -34 35 0
-21 -35 -36 0
21 35 -36 0
-21 35 36 0
21 -35 36 0
37 32 0
37 36 0
-32 -36 -37 0
-20 30 -38 0
20 -30 -38 0
-20 -30 38 0
20 30 38 0
-39 38 0
-39 -12 0
-38 12 39 0
-39 -40 -41 0
39 40 -41 0
-39 40 41 0
39 -40 41 0
42 37 0
42 41 0
-37 -41 -42 0
-44 -43 0
-44 -34 0
43 34 44 0
45 -10 0
45 44 0
10 -44 -45 0
47 -45 0
47 46 0
45 -46 -47 0
-49 -47 0
-49 48 0
47 -48 49 0
-34 10 -50 0
34 -10 -50 0
-34 -10 50 0
34 10 50 0
51 -49 0
51 50 0
49 -50 -51 0
52 -8 0
52 -44 0
8 44 -52 0
54 52 0
54 53 0
-52 -53 -54 0
-55 40 0
-55 -54 0
-40 54 55 0
-57 -55 0
-57 -56 0
55 56 57 0
-51 57 -58 0
51 -57 -58 0
-51 -57 58 0
51 57 58 0
-59 -20 0
-59 -22 0
20 22 59 0
60 58 0
60 59 0
-58 -59 -60 0
-61 42 0
-61 -60 0
-42 60 61 0
63 33 0
63 33 0
-33 -63 0
64 -62 0
64 -63 0
62 63 -64 0
64 -20 -65 0
-64 20 -65 0
64 20 65 0
-64 -20 65 0
-1 -65 -66 0
1 65 -66 0
-1 65 66 0
1 -65 66 0
30 -34 -67 0
-30 34 -67 0
30 34 67 0
-30 -34 67 0
68 11 0
68 -62 0
-11 62 -68 0
69 -44 0
69 68 0
44 -68 -69 0
70 67 0
70 69 0
-67 -69 -70 0
-33 -69 -71 0
33 69 -71 0
-33 69 71 0
33 -69 71 0
12 -71 -72 0
-12 71 -72 0
12 71 72 0
-12 -71 72 0
-73 -72 0
-73 -6 0
72 6 73 0
-73 31 -74 0
73 -31 -74 0
-73 -31 74 0
73 31 74 0
75 -33 0
75 25 0
33 -25 -75 0
-76 12 0
-76 75 0
-12 -75 76 0
-77 24 0
-77 -34 0
-24 34 77 0
78 -76 0
78 -77 0
76 77 -78 0
36 78 -79 0
-36 -78 -79 0
36 -78 79 0
-36 78 79 0
-80 74 0
-80 -79 0
-74 79 80 0
-81 -70 0
-81 -80 0
70 80 81 0
-82 -66 0
-82 -81 0
66 81 82 0
-83 61 0
-83 82 0
-61 -82 83 0
84 -18 0
84 83 0
18 -83 -84 0
-86 85 0
-86 32 0
-85 -32 86 0
1 6 -87 0
-1 -6 -87 0
1 -6 87 0
-1 6 87 0
43 87 -88 0
-43 -87 -88 0
43 -87 88 0
-43 87 88 0
1 -89 -90 0
-1 89 -90 0
1 89 90 0
-1 -89 90 0
-91 31 0
-91 90 0
-31 -90 91 0
92 8 0
92 38 0
-8 -38 -92 0
-94 92 0
-94 -93 0
-92 93 94 0
-95 -91 0
-95 -94 0
91 94 95 0
88 -95 -96 0
-88 95 -96 0
88 95 96 0
-88 -95 96 0
97 64 0
97 31 0
-64 -31 -97 0
98 -96 0
98 -97 0
96 97 -98 0
-2 78 -99 0
2 -78 -99 0
-2 -78 99 0
2 78 99 0
100 -89 0
100 -43 0
89 43 -100 0
-101 -99 0
-101 100 0
99 -100 101 0
-103 85 0
-103 102 0
-85 -102 103 0
104 -19 0
104 -103 0
19 103 -104 0
105 101 0
105 104 0
-101 -104 -105 0
106 98 0
106 -105 0
-98 105 -106 0
107 86 0
107 -106 0
-86 106 -107 0
-108 84 0
-108 107 0
-84 -107 108 0
109 -62 0
109 -46 0
62 46 -109 0
110 53 0
110 56 0
-53 -56 -110 0
111 -22 0
111 110 0
22 -110 -111 0
109 111 -112 0
-109 -111 -112 0
109 -111 112 0
-109 111 112 0
113 108 0
113 112 0
-108 -112 -113 0
-21 85 -114 0
21 -85 -114 0
-21 -85 114 0
21 85 114 0
-115 -87 0
-115 -11 0
87 11 115 0
110 115 -116 0
-110 -115 -116 0
110 -115 116 0
-110 115 116 0
117 114 0
117 -116 0
-114 116 -117 0
119 -29 0
119 118 0
29 -118 -119 0
-102 119 -120 0
102 -119 -120 0
-102 -119 120 0
102 119 120 0
117 120 -121 0
-117 -120 -121 0
117 -120 121 0
-117 120 121 0
-122 -72 0
-122 -92 0
72 92 122 0
-123 -40 0
-123 90 0
40 -90 123 0
124 122 0
124 -123 0
-122 123 -124 0
-125 -63 0
-125 -15 0
63 15 125 0
-126 -19 0
-126 34 0
19 -34 126 0
-125 126 -127 0
125 -126 -127 0
-125 -126 127 0
125 126 127 0
-128 -69 0
-128 68 0
69 -68 128 0
129 93 0
129 25 0
-93 -25 -129 0
-33 129 -130 0
33 -129 -130 0
-33 -129 130 0
33 129 130 0
-128 130 -131 0
128 -130 -131 0
-128 -130 131 0
128 130 131 0
132 -62 0
132 19 0
62 -19 -132 0
-131 -132 -133 0
131 132 -133 0
-131 132 133 0
131 -132 133 0
-134 -127 0
-134 -133 0
127 133 134 0
135 -63 0
135 7 0
63 -7 -135 0
136 135 0
136 -45 0
-135 45 -136 0
-137 -134 0
-137 136 0
134 -136 137 0
138 124 0
138 137 0
-124 -137 -138 0
139 90 0
139 -7 0
-90 7 -139 0
138 139 -140 0
-138 -139 -140 0
138 -139 140 0
-138 139 140 0
121 -140 -141 0
-121 140 -141 0
121 140 141 0
-121 -140 141 0
113 -141 -142 0
-113 141 -142 0
113 141 142 0
-113 -141 142 0
92 16 -95 97 -93 132 0
-58 4 12 -24 -72 -117 0
62 -129 -135 -63 -134 0
129 -4 39 -73 0
58 -31 24 13 68 -124 -18 -103 -133 67 0
63 121 16 -140 -123 -134 -89 -13 0
-131 -95 55 13 125 0
-88 -29 139 0
-21 -73 102 -80 87 0
-28 -12 -80 -1 -115 24 0
-132 -113 57 -67 78 -17 35 61 56 85 0
63 -4 12 -1 0
-57 -20 -41 0
4 -75 0
15 -17 -34 136 -109 -60 -141 133 67 0
-101 -22 -48 -14 -118 -126 0
-135 78 -19 -31 -32 64 85 -114 -72 20 0
55 -107 -39 0
-83 90 76 28 0
90 58 -75 -19 -128 -57 -84 0
6 -109 -70 87 0
-120 -141 -71 0
28 -90 53 -130 92 56 -86 -49 -13 0
-107 121 123 -81 1 -90 134 -51 11 0
-9 112 -5 -79 18 83 66 -65 0
-35 41 100 -67 16 127 68 -7 0
-28 53 12 -127 -27 76 -134 69 88 63 0
-79 55 137 126 68 67 8 -86 115 9 0
-128 37 -135 64 51 120 41 -112 0
94 -23 76 30 0
-60 -133 124 6 -24 125 132 32 0
20 115 -78 -128 -101 45 -73 -5 0
129 43 13 -138 -118 103 -82 0
80 -49 27 -34 -17 -12 -6 0
21 -63 -93 0
-43 -57 -61 -21 -74 -19 4 0
-41 68 21 -122 -104 61 -79 0
138 1 -134 -62 93 108 56 88 0
-131 -8 -135 13 -35 -113 -126 82 0
104 66 8 -114 -79 -131 12 83 116 -65 0
19 -82 -64 96 -28 70 -45 71 0
142 0
